homework/2/sat_in/bonus/06.wcnf
p wcnf 9 21 10
1 -1 0
1 -2 0
1 -3 0
1 -4 0
1 -5 0
1 -6 0
1 -7 0
1 -8 0
1 -9 0
10 1 4 0
10 1 5 0
10 1 7 0
10 1 9 0
10 2 4 0
10 3 4 0
10 4 6 0
10 4 7 0
10 5 7 0
10 6 8 0
10 6 9 0
10 7 9 0
