homework/2/sat_in/task3/06.cnf
p cnf 45 425
1 2 3 4 5 6 7 8 9 0
-1 -2 0
-1 -3 0
-1 -4 0
-1 -5 0
-1 -6 0
-1 -7 0
-1 -8 0
-1 -9 0
-2 -3 0
-2 -4 0
-2 -5 0
-2 -6 0
-2 -7 0
-2 -8 0
-2 -9 0
-3 -4 0
-3 -5 0
-3 -6 0
-3 -7 0
-3 -8 0
-3 -9 0
-4 -5 0
-4 -6 0
-4 -7 0
-4 -8 0
-4 -9 0
-5 -6 0
-5 -7 0
-5 -8 0
-5 -9 0
-6 -7 0
-6 -8 0
-6 -9 0
-7 -8 0
-7 -9 0
-8 -9 0
10 11 12 13 14 15 16 17 18 0
-10 -11 0
-10 -12 0
-10 -13 0
-10 -14 0
-10 -15 0
-10 -16 0
-10 -17 0
-10 -18 0
-11 -12 0
-11 -13 0
-11 -14 0
-11 -15 0
-11 -16 0
-11 -17 0
-11 -18 0
-12 -13 0
-12 -14 0
-12 -15 0
-12 -16 0
-12 -17 0
-12 -18 0
-13 -14 0
-13 -15 0
-13 -16 0
-13 -17 0
-13 -18 0
-14 -15 0
-14 -16 0
-14 -17 0
-14 -18 0
-15 -16 0
-15 -17 0
-15 -18 0
-16 -17 0
-16 -18 0
-17 -18 0
19 20 21 22 23 24 25 26 27 0
-19 -20 0
-19 -21 0
-19 -22 0
-19 -23 0
-19 -24 0
-19 -25 0
-19 -26 0
-19 -27 0
-20 -21 0
-20 -22 0
-20 -23 0
-20 -24 0
-20 -25 0
-20 -26 0
-20 -27 0
-21 -22 0
-21 -23 0
-21 -24 0
-21 -25 0
-21 -26 0
-21 -27 0
-22 -23 0
-22 -24 0
-22 -25 0
-22 -26 0
-22 -27 0
-23 -24 0
-23 -25 0
-23 -26 0
-23 -27 0
-24 -25 0
-24 -26 0
-24 -27 0
-25 -26 0
-25 -27 0
-26 -27 0
28 29 30 31 32 33 34 35 36 0
-28 -29 0
-28 -30 0
-28 -31 0
-28 -32 0
-28 -33 0
-28 -34 0
-28 -35 0
-28 -36 0
-29 -30 0
-29 -31 0
-29 -32 0
-29 -33 0
-29 -34 0
-29 -35 0
-29 -36 0
-30 -31 0
-30 -32 0
-30 -33 0
-30 -34 0
-30 -35 0
-30 -36 0
-31 -32 0
-31 -33 0
-31 -34 0
-31 -35 0
-31 -36 0
-32 -33 0
-32 -34 0
-32 -35 0
-32 -36 0
-33 -34 0
-33 -35 0
-33 -36 0
-34 -35 0
-34 -36 0
-35 -36 0
37 38 39 40 41 42 43 44 45 0
-37 -38 0
-37 -39 0
-37 -40 0
-37 -41 0
-37 -42 0
-37 -43 0
-37 -44 0
-37 -45 0
-38 -39 0
-38 -40 0
-38 -41 0
-38 -42 0
-38 -43 0
-38 -44 0
-38 -45 0
-39 -40 0
-39 -41 0
-39 -42 0
-39 -43 0
-39 -44 0
-39 -45 0
-40 -41 0
-40 -42 0
-40 -43 0
-40 -44 0
-40 -45 0
-41 -42 0
-41 -43 0
-41 -44 0
-41 -45 0
-42 -43 0
-42 -44 0
-42 -45 0
-43 -44 0
-43 -45 0
-44 -45 0
-1 -10 0
-1 -19 0
-1 -28 0
-1 -37 0
-10 -19 0
-10 -28 0
-10 -37 0
-19 -28 0
-19 -37 0
-28 -37 0
-2 -11 0
-2 -20 0
-2 -29 0
-2 -38 0
-11 -20 0
-11 -29 0
-11 -38 0
-20 -29 0
-20 -38 0
-29 -38 0
-3 -12 0
-3 -21 0
-3 -30 0
-3 -39 0
-12 -21 0
-12 -30 0
-12 -39 0
-21 -30 0
-21 -39 0
-30 -39 0
-4 -13 0
-4 -22 0
-4 -31 0
-4 -40 0
-13 -22 0
-13 -31 0
-13 -40 0
-22 -31 0
-22 -40 0
-31 -40 0
-5 -14 0
-5 -23 0
-5 -32 0
-5 -41 0
-14 -23 0
-14 -32 0
-14 -41 0
-23 -32 0
-23 -41 0
-32 -41 0
-6 -15 0
-6 -24 0
-6 -33 0
-6 -42 0
-15 -24 0
-15 -33 0
-15 -42 0
-24 -33 0
-24 -42 0
-33 -42 0
-7 -16 0
-7 -25 0
-7 -34 0
-7 -43 0
-16 -25 0
-16 -34 0
-16 -43 0
-25 -34 0
-25 -43 0
-34 -43 0
-8 -17 0
-8 -26 0
-8 -35 0
-8 -44 0
-17 -26 0
-17 -35 0
-17 -44 0
-26 -35 0
-26 -44 0
-35 -44 0
-9 -18 0
-9 -27 0
-9 -36 0
-9 -45 0
-18 -27 0
-18 -36 0
-18 -45 0
-27 -36 0
-27 -45 0
-36 -45 0
-1 -13 0
-10 -4 0
-1 -22 0
-19 -4 0
-1 -31 0
-28 -4 0
-1 -40 0
-37 -4 0
-10 -22 0
-19 -13 0
-10 -31 0
-28 -13 0
-10 -40 0
-37 -13 0
-19 -31 0
-28 -22 0
-19 -40 0
-37 -22 0
-28 -40 0
-37 -31 0
-1 -14 0
-10 -5 0
-1 -23 0
-19 -5 0
-1 -32 0
-28 -5 0
-1 -41 0
-37 -5 0
-10 -23 0
-19 -14 0
-10 -32 0
-28 -14 0
-10 -41 0
-37 -14 0
-19 -32 0
-28 -23 0
-19 -41 0
-37 -23 0
-28 -41 0
-37 -32 0
-1 -16 0
-10 -7 0
-1 -25 0
-19 -7 0
-1 -34 0
-28 -7 0
-1 -43 0
-37 -7 0
-10 -25 0
-19 -16 0
-10 -34 0
-28 -16 0
-10 -43 0
-37 -16 0
-19 -34 0
-28 -25 0
-19 -43 0
-37 -25 0
-28 -43 0
-37 -34 0
-1 -18 0
-10 -9 0
-1 -27 0
-19 -9 0
-1 -36 0
-28 -9 0
-1 -45 0
-37 -9 0
-10 -27 0
-19 -18 0
-10 -36 0
-28 -18 0
-10 -45 0
-37 -18 0
-19 -36 0
-28 -27 0
-19 -45 0
-37 -27 0
-28 -45 0
-37 -36 0
-2 -13 0
-11 -4 0
-2 -22 0
-20 -4 0
-2 -31 0
-29 -4 0
-2 -40 0
-38 -4 0
-11 -22 0
-20 -13 0
-11 -31 0
-29 -13 0
-11 -40 0
-38 -13 0
-20 -31 0
-29 -22 0
-20 -40 0
-38 -22 0
-29 -40 0
-38 -31 0
-3 -13 0
-12 -4 0
-3 -22 0
-21 -4 0
-3 -31 0
-30 -4 0
-3 -40 0
-39 -4 0
-12 -22 0
-21 -13 0
-12 -31 0
-30 -13 0
-12 -40 0
-39 -13 0
-21 -31 0
-30 -22 0
-21 -40 0
-39 -22 0
-30 -40 0
-39 -31 0
-4 -15 0
-13 -6 0
-4 -24 0
-22 -6 0
-4 -33 0
-31 -6 0
-4 -42 0
-40 -6 0
-13 -24 0
-22 -15 0
-13 -33 0
-31 -15 0
-13 -42 0
-40 -15 0
-22 -33 0
-31 -24 0
-22 -42 0
-40 -24 0
-31 -42 0
-40 -33 0
-4 -16 0
-13 -7 0
-4 -25 0
-22 -7 0
-4 -34 0
-31 -7 0
-4 -43 0
-40 -7 0
-13 -25 0
-22 -16 0
-13 -34 0
-31 -16 0
-13 -43 0
-40 -16 0
-22 -34 0
-31 -25 0
-22 -43 0
-40 -25 0
-31 -43 0
-40 -34 0
-5 -16 0
-14 -7 0
-5 -25 0
-23 -7 0
-5 -34 0
-32 -7 0
-5 -43 0
-41 -7 0
-14 -25 0
-23 -16 0
-14 -34 0
-32 -16 0
-14 -43 0
-41 -16 0
-23 -34 0
-32 -25 0
-23 -43 0
-41 -25 0
-32 -43 0
-41 -34 0
-6 -17 0
-15 -8 0
-6 -26 0
-24 -8 0
-6 -35 0
-33 -8 0
-6 -44 0
-42 -8 0
-15 -26 0
-24 -17 0
-15 -35 0
-33 -17 0
-15 -44 0
-42 -17 0
-24 -35 0
-33 -26 0
-24 -44 0
-42 -26 0
-33 -44 0
-42 -35 0
-6 -18 0
-15 -9 0
-6 -27 0
-24 -9 0
-6 -36 0
-33 -9 0
-6 -45 0
-42 -9 0
-15 -27 0
-24 -18 0
-15 -36 0
-33 -18 0
-15 -45 0
-42 -18 0
-24 -36 0
-33 -27 0
-24 -45 0
-42 -27 0
-33 -45 0
-42 -36 0
-7 -18 0
-16 -9 0
-7 -27 0
-25 -9 0
-7 -36 0
-34 -9 0
-7 -45 0
-43 -9 0
-16 -27 0
-25 -18 0
-16 -36 0
-34 -18 0
-16 -45 0
-43 -18 0
-25 -36 0
-34 -27 0
-25 -45 0
-43 -27 0
-34 -45 0
-43 -36 0
